% demand
num_movements = 18;
loading_factor = [1750, 1750, 1900, 1200, 1150, 1800, 800, 1350, 1350, 800, 1050, 1400, 1650, 1700, 850, 1600, 1500, 850];
pickup_time = [0, 1, 1, 1, 3, 3, 6, 7, 7, 7, 7, 8, 8, 8, 10, 10, 10, 10];
delivery_time = [3, 5, 6, 3, 6, 5, 9, 8, 10, 8, 8, 10, 9, 9, 11, 11, 11, 11];

% transporter definition
total_capacity = 7000;
num_decks = 3;
capacity = [3000, 1000, 3000];

% ways out of decks
num_ways_out = 1;
paths_out = array3d(decks, ways_out, decks, [
% ways out of deck d1
2, 3, 0, 

% ways out of deck d2
3, 0, 0, 

% ways out of deck d3
0, 0, 0,	

]);

